u120_02
150 120 46 48
38 0
100 0
60 1
42 1
20 1
69 2
24 1
23 2
92 3
32 2
84 4
36 3
65 4
84 5
34 5
68 6
64 6
33 7
69 7
27 5
47 7
21 2
85 8
88 9
59 8
61 9
50 10
53 10
37 10
75 11
64 11
84 12
74 13
57 12
83 14
28 13
31 13
97 15
61 14
36 15
46 16
37 16
96 17
80 18
53 16
51 17
68 18
90 19
64 20
81 20
66 21
67 21
80 22
37 19
92 23
67 22
64 24
31 23
94 25
45 24
80 26
28 24
76 27
29 25
64 26
38 27
48 28
40 28
29 27
44 28
81 29
35 29
51 30
48 30
67 31
24 23
46 30
38 31
76 32
22 19
30 29
67 32
45 33
41 31
29 33
41 33
79 34
21 3
25 25
90 35
62 34
34 33
73 36
50 35
79 37
66 36
59 37
42 38
90 38
79 39
70 39
66 40
80 40
35 41
62 41
98 42
97 43
37 41
32 42
75 44
91 45
91 46
48 43
26 44
23 44
32 45
100 47
46 46
29 47
26 45